certificates/rado_a15_c293_N60.cnf
c Rad2 upper bound instance: x1 + 15*x2 - x3 = 293, interval [1,60]
p cnf 60 478
1 8 20 0
-1 -8 -20 0
1 21 23 0
-1 -21 -23 0
1 22 38 0
-1 -22 -38 0
1 23 53 0
-1 -23 -53 0
2 9 20 0
-2 -9 -20 0
2 21 24 0
-2 -21 -24 0
2 22 39 0
-2 -22 -39 0
2 23 54 0
-2 -23 -54 0
3 10 20 0
-3 -10 -20 0
3 21 25 0
-3 -21 -25 0
3 22 40 0
-3 -22 -40 0
3 23 55 0
-3 -23 -55 0
4 11 20 0
-4 -11 -20 0
4 21 26 0
-4 -21 -26 0
4 22 41 0
-4 -22 -41 0
4 23 56 0
-4 -23 -56 0
5 12 20 0
-5 -12 -20 0
5 21 27 0
-5 -21 -27 0
5 22 42 0
-5 -22 -42 0
5 23 57 0
-5 -23 -57 0
6 13 20 0
-6 -13 -20 0
6 21 28 0
-6 -21 -28 0
6 22 43 0
-6 -22 -43 0
6 23 58 0
-6 -23 -58 0
7 14 20 0
-7 -14 -20 0
7 21 29 0
-7 -21 -29 0
7 22 44 0
-7 -22 -44 0
7 23 59 0
-7 -23 -59 0
8 15 20 0
-8 -15 -20 0
8 21 30 0
-8 -21 -30 0
8 22 45 0
-8 -22 -45 0
8 23 60 0
-8 -23 -60 0
1 9 19 0
-1 -9 -19 0
9 16 20 0
-9 -16 -20 0
9 21 31 0
-9 -21 -31 0
9 22 46 0
-9 -22 -46 0
2 10 19 0
-2 -10 -19 0
10 17 20 0
-10 -17 -20 0
10 21 32 0
-10 -21 -32 0
10 22 47 0
-10 -22 -47 0
3 11 19 0
-3 -11 -19 0
11 18 20 0
-11 -18 -20 0
11 21 33 0
-11 -21 -33 0
11 22 48 0
-11 -22 -48 0
4 12 19 0
-4 -12 -19 0
12 19 20 0
-12 -19 -20 0
12 21 34 0
-12 -21 -34 0
12 22 49 0
-12 -22 -49 0
5 13 19 0
-5 -13 -19 0
13 20 0
-13 -20 0
13 21 35 0
-13 -21 -35 0
13 22 50 0
-13 -22 -50 0
6 14 19 0
-6 -14 -19 0
14 20 21 0
-14 -20 -21 0
14 21 36 0
-14 -21 -36 0
14 22 51 0
-14 -22 -51 0
7 15 19 0
-7 -15 -19 0
15 20 22 0
-15 -20 -22 0
15 21 37 0
-15 -21 -37 0
15 22 52 0
-15 -22 -52 0
8 16 19 0
-8 -16 -19 0
16 20 23 0
-16 -20 -23 0
16 21 38 0
-16 -21 -38 0
16 22 53 0
-16 -22 -53 0
9 17 19 0
-9 -17 -19 0
17 20 24 0
-17 -20 -24 0
17 21 39 0
-17 -21 -39 0
17 22 54 0
-17 -22 -54 0
10 18 19 0
-10 -18 -19 0
18 20 25 0
-18 -20 -25 0
18 21 40 0
-18 -21 -40 0
18 22 55 0
-18 -22 -55 0
11 19 0
-11 -19 0
19 20 26 0
-19 -20 -26 0
19 21 41 0
-19 -21 -41 0
19 22 56 0
-19 -22 -56 0
20 27 0
-20 -27 0
20 21 42 0
-20 -21 -42 0
20 22 57 0
-20 -22 -57 0
13 19 21 0
-13 -19 -21 0
20 21 28 0
-20 -21 -28 0
21 43 0
-21 -43 0
21 22 58 0
-21 -22 -58 0
14 19 22 0
-14 -19 -22 0
20 22 29 0
-20 -22 -29 0
21 22 44 0
-21 -22 -44 0
22 59 0
-22 -59 0
15 19 23 0
-15 -19 -23 0
20 23 30 0
-20 -23 -30 0
21 23 45 0
-21 -23 -45 0
22 23 60 0
-22 -23 -60 0
1 18 24 0
-1 -18 -24 0
16 19 24 0
-16 -19 -24 0
20 24 31 0
-20 -24 -31 0
21 24 46 0
-21 -24 -46 0
2 18 25 0
-2 -18 -25 0
17 19 25 0
-17 -19 -25 0
20 25 32 0
-20 -25 -32 0
21 25 47 0
-21 -25 -47 0
3 18 26 0
-3 -18 -26 0
18 19 26 0
-18 -19 -26 0
20 26 33 0
-20 -26 -33 0
21 26 48 0
-21 -26 -48 0
4 18 27 0
-4 -18 -27 0
19 27 0
-19 -27 0
20 27 34 0
-20 -27 -34 0
21 27 49 0
-21 -27 -49 0
5 18 28 0
-5 -18 -28 0
19 20 28 0
-19 -20 -28 0
20 28 35 0
-20 -28 -35 0
21 28 50 0
-21 -28 -50 0
6 18 29 0
-6 -18 -29 0
19 21 29 0
-19 -21 -29 0
20 29 36 0
-20 -29 -36 0
21 29 51 0
-21 -29 -51 0
7 18 30 0
-7 -18 -30 0
19 22 30 0
-19 -22 -30 0
20 30 37 0
-20 -30 -37 0
21 30 52 0
-21 -30 -52 0
8 18 31 0
-8 -18 -31 0
19 23 31 0
-19 -23 -31 0
20 31 38 0
-20 -31 -38 0
21 31 53 0
-21 -31 -53 0
9 18 32 0
-9 -18 -32 0
19 24 32 0
-19 -24 -32 0
20 32 39 0
-20 -32 -39 0
21 32 54 0
-21 -32 -54 0
10 18 33 0
-10 -18 -33 0
19 25 33 0
-19 -25 -33 0
20 33 40 0
-20 -33 -40 0
21 33 55 0
-21 -33 -55 0
11 18 34 0
-11 -18 -34 0
19 26 34 0
-19 -26 -34 0
20 34 41 0
-20 -34 -41 0
21 34 56 0
-21 -34 -56 0
12 18 35 0
-12 -18 -35 0
19 27 35 0
-19 -27 -35 0
20 35 42 0
-20 -35 -42 0
21 35 57 0
-21 -35 -57 0
13 18 36 0
-13 -18 -36 0
19 28 36 0
-19 -28 -36 0
20 36 43 0
-20 -36 -43 0
21 36 58 0
-21 -36 -58 0
14 18 37 0
-14 -18 -37 0
19 29 37 0
-19 -29 -37 0
20 37 44 0
-20 -37 -44 0
21 37 59 0
-21 -37 -59 0
15 18 38 0
-15 -18 -38 0
19 30 38 0
-19 -30 -38 0
20 38 45 0
-20 -38 -45 0
21 38 60 0
-21 -38 -60 0
1 17 39 0
-1 -17 -39 0
16 18 39 0
-16 -18 -39 0
19 31 39 0
-19 -31 -39 0
20 39 46 0
-20 -39 -46 0
2 17 40 0
-2 -17 -40 0
17 18 40 0
-17 -18 -40 0
19 32 40 0
-19 -32 -40 0
20 40 47 0
-20 -40 -47 0
3 17 41 0
-3 -17 -41 0
18 41 0
-18 -41 0
19 33 41 0
-19 -33 -41 0
20 41 48 0
-20 -41 -48 0
4 17 42 0
-4 -17 -42 0
18 19 42 0
-18 -19 -42 0
19 34 42 0
-19 -34 -42 0
20 42 49 0
-20 -42 -49 0
5 17 43 0
-5 -17 -43 0
18 20 43 0
-18 -20 -43 0
19 35 43 0
-19 -35 -43 0
20 43 50 0
-20 -43 -50 0
6 17 44 0
-6 -17 -44 0
18 21 44 0
-18 -21 -44 0
19 36 44 0
-19 -36 -44 0
20 44 51 0
-20 -44 -51 0
7 17 45 0
-7 -17 -45 0
18 22 45 0
-18 -22 -45 0
19 37 45 0
-19 -37 -45 0
20 45 52 0
-20 -45 -52 0
8 17 46 0
-8 -17 -46 0
18 23 46 0
-18 -23 -46 0
19 38 46 0
-19 -38 -46 0
20 46 53 0
-20 -46 -53 0
9 17 47 0
-9 -17 -47 0
18 24 47 0
-18 -24 -47 0
19 39 47 0
-19 -39 -47 0
20 47 54 0
-20 -47 -54 0
10 17 48 0
-10 -17 -48 0
18 25 48 0
-18 -25 -48 0
19 40 48 0
-19 -40 -48 0
20 48 55 0
-20 -48 -55 0
11 17 49 0
-11 -17 -49 0
18 26 49 0
-18 -26 -49 0
19 41 49 0
-19 -41 -49 0
20 49 56 0
-20 -49 -56 0
12 17 50 0
-12 -17 -50 0
18 27 50 0
-18 -27 -50 0
19 42 50 0
-19 -42 -50 0
20 50 57 0
-20 -50 -57 0
13 17 51 0
-13 -17 -51 0
18 28 51 0
-18 -28 -51 0
19 43 51 0
-19 -43 -51 0
20 51 58 0
-20 -51 -58 0
14 17 52 0
-14 -17 -52 0
18 29 52 0
-18 -29 -52 0
19 44 52 0
-19 -44 -52 0
20 52 59 0
-20 -52 -59 0
15 17 53 0
-15 -17 -53 0
18 30 53 0
-18 -30 -53 0
19 45 53 0
-19 -45 -53 0
20 53 60 0
-20 -53 -60 0
1 16 54 0
-1 -16 -54 0
16 17 54 0
-16 -17 -54 0
18 31 54 0
-18 -31 -54 0
19 46 54 0
-19 -46 -54 0
2 16 55 0
-2 -16 -55 0
17 55 0
-17 -55 0
18 32 55 0
-18 -32 -55 0
19 47 55 0
-19 -47 -55 0
3 16 56 0
-3 -16 -56 0
17 18 56 0
-17 -18 -56 0
18 33 56 0
-18 -33 -56 0
19 48 56 0
-19 -48 -56 0
4 16 57 0
-4 -16 -57 0
17 19 57 0
-17 -19 -57 0
18 34 57 0
-18 -34 -57 0
19 49 57 0
-19 -49 -57 0
5 16 58 0
-5 -16 -58 0
17 20 58 0
-17 -20 -58 0
18 35 58 0
-18 -35 -58 0
19 50 58 0
-19 -50 -58 0
6 16 59 0
-6 -16 -59 0
17 21 59 0
-17 -21 -59 0
18 36 59 0
-18 -36 -59 0
19 51 59 0
-19 -51 -59 0
7 16 60 0
-7 -16 -60 0
17 22 60 0
-17 -22 -60 0
18 37 60 0
-18 -37 -60 0
19 52 60 0
-19 -52 -60 0
