certificates/rado_a15_c293_N60.drat
-23 -53 -60 0
-53 -54 22 -60 0
-54 22 -60 0
d -53 -54 22 -60 0
20 -18 22 0
-59 -60 0
-60 0
18 56 26 0
-1 -21 -20 0
-22 -20 0
-20 0
13 0
27 0
53 0
-19 0
12 0
11 0
26 0
28 0
52 0
43 0
-21 0
42 0
14 0
38 0
41 0
29 0
-17 0
-18 0
55 0
59 0
22 0
58 0
10 0
24 0
57 0
9 0
25 0
39 0
37 0
56 0
40 0
44 0
0
